10
5
710322
0
0
121 115 129 112 115
1
0
213 225 236 238 279
2
0
11 11 6 10 12
3
0
19 12 21 8 25
4
0
63 81 57 84 64
5
0
196 170 189 204 182
6
0
50 55 47 49 50
7
0
87 94 108 107 120
8
0
42 28 48 56 67
9
0
69 41 58 59 52
